c preprocessed version of BN_106, 46 vertices, 709 edges
p td 46 709
0 1
2 0
15 0
12 0
14 0
27 0
28 0
10 0
18 0
20 0
26 0
2 1
15 1
12 1
14 1
27 1
28 1
10 1
18 1
20 1
2 3
2 4
2 5
2 6
2 7
8 2
2 9
2 21
2 13
2 19
2 11
2 23
2 24
2 25
15 2
12 2
14 2
27 2
28 2
10 2
22 2
18 2
20 2
26 2
29 2
3 4
3 5
3 6
3 13
3 9
3 21
8 3
12 3
14 3
10 3
22 3
18 3
20 3
26 3
29 3
4 5
4 6
4 9
4 30
8 4
14 4
10 4
22 4
18 4
20 4
26 4
29 4
5 6
5 7
8 5
10 5
22 5
18 5
20 5
26 5
29 5
6 7
8 6
10 6
22 6
18 6
20 6
26 6
29 6
8 7
10 7
22 7
26 7
29 7
8 9
8 30
8 13
8 19
8 23
8 24
8 25
8 17
12 8
16 8
14 8
27 8
28 8
10 8
22 8
18 8
20 8
26 8
29 8
10 9
18 9
29 9
10 11
12 10
10 19
10 21
10 23
10 24
10 25
15 10
16 10
14 10
27 10
28 10
22 10
18 10
20 10
26 10
29 10
12 11
14 11
18 11
20 11
26 11
29 11
12 13
12 19
12 23
12 24
12 25
12 17
15 12
12 16
12 14
12 27
12 28
22 12
18 12
20 12
26 12
29 12
14 13
18 13
20 13
15 14
16 14
14 17
14 30
14 27
14 28
22 14
18 14
20 14
26 14
29 14
15 16
15 27
15 28
22 15
18 15
20 15
26 15
16 17
16 27
16 28
22 16
18 16
20 16
26 16
18 17
20 17
26 17
18 19
18 21
18 23
18 24
18 30
18 27
18 28
22 18
18 26
18 29
18 20
20 19
26 19
20 21
20 23
20 24
20 25
20 27
20 28
22 20
20 26
20 29
22 21
29 21
22 23
22 24
22 30
22 27
22 28
22 26
22 29
23 24
26 23
29 23
24 25
26 24
29 24
26 25
29 25
26 27
26 28
26 29
27 28
31 18
31 45
31 38
31 26
31 41
31 42
31 0
31 1
31 44
31 3
31 4
31 5
31 6
31 9
31 21
31 19
31 23
31 24
31 25
31 17
31 2
31 8
31 36
31 43
31 29
31 22
31 15
31 32
31 20
31 33
31 12
31 34
31 35
31 37
31 16
31 14
31 39
31 40
31 27
31 28
31 10
32 45
32 22
32 18
32 15
32 20
32 33
32 12
32 2
32 34
32 8
32 35
32 36
32 10
32 37
32 38
32 16
32 14
32 39
32 40
32 26
32 27
32 41
32 28
32 42
32 43
32 44
32 29
32 3
32 23
32 11
32 24
32 17
32 4
32 5
32 6
32 13
32 7
32 9
32 30
33 45
33 0
33 1
33 2
33 3
33 4
33 5
33 6
33 7
33 8
33 9
33 11
33 23
33 24
33 17
33 15
33 12
33 34
33 10
33 16
33 14
33 27
33 28
33 39
33 22
33 18
33 20
33 35
33 36
33 37
33 40
33 26
33 41
33 42
33 43
33 44
33 29
33 38
34 45
34 2
34 3
34 4
34 5
34 6
34 8
34 11
34 12
34 13
34 19
34 23
34 24
34 25
34 30
34 15
34 10
34 16
34 14
34 27
34 28
34 39
34 22
34 18
34 20
34 35
34 36
34 37
34 40
34 26
34 41
34 42
34 43
34 44
34 29
34 38
35 45
35 22
35 18
35 20
35 15
35 12
35 8
35 2
35 36
35 10
35 37
35 38
35 16
35 14
35 39
35 40
35 26
35 27
35 41
35 28
35 42
35 43
35 0
35 44
35 29
35 3
35 19
35 23
35 11
35 24
35 17
35 4
35 5
35 6
35 7
35 9
35 30
36 45
36 22
36 18
36 20
36 38
36 26
36 41
36 42
36 0
36 1
36 44
36 3
36 4
36 9
36 30
36 13
36 21
36 23
36 24
36 25
36 17
36 8
36 2
36 43
36 29
36 15
36 12
36 37
36 16
36 14
36 39
36 40
36 27
36 28
36 10
37 45
37 22
37 18
37 20
37 15
37 12
37 10
37 8
37 2
37 38
37 16
37 14
37 39
37 40
37 26
37 27
37 41
37 28
37 42
37 43
37 0
37 44
37 29
37 3
37 19
37 1
37 23
37 11
37 4
37 5
37 6
37 7
37 9
37 21
37 30
38 45
38 22
38 18
38 20
38 40
38 26
38 41
38 42
38 43
38 44
38 29
38 0
38 3
38 19
38 1
38 23
38 24
38 4
38 5
38 6
38 13
38 25
38 9
38 21
38 30
38 8
38 2
38 15
38 12
38 14
38 39
38 27
38 28
38 10
39 45
39 0
39 1
39 2
39 3
39 4
39 5
39 6
39 8
39 9
39 11
39 12
39 13
39 19
39 21
39 23
39 24
39 25
39 30
39 15
39 16
39 14
39 10
39 27
39 28
39 22
39 18
39 20
39 40
39 26
39 41
39 42
39 43
39 44
39 29
40 45
40 22
40 18
40 20
40 15
40 12
40 16
40 14
40 10
40 26
40 27
40 41
40 28
40 42
40 0
40 44
40 3
40 19
40 23
40 24
40 17
40 4
40 5
40 6
40 25
40 7
40 21
40 8
40 43
40 29
40 2
41 45
41 22
41 18
41 20
41 26
41 42
41 0
41 44
41 19
41 1
41 23
41 24
41 8
41 43
41 29
41 2
41 15
41 12
41 14
41 27
41 28
41 10
42 45
42 22
42 18
42 20
42 26
42 0
42 44
42 3
42 19
42 1
42 23
42 11
42 24
42 4
42 5
42 6
42 13
42 7
42 30
42 8
42 43
42 29
42 2
42 15
42 12
42 14
42 27
42 28
42 10
43 45
43 22
43 18
43 20
43 26
43 44
43 3
43 4
43 5
43 6
43 8
43 29
43 21
43 13
43 11
43 23
43 24
43 2
43 12
43 14
43 27
43 10
44 45
44 22
44 18
44 20
44 26
44 3
44 19
44 11
44 4
44 5
44 6
44 21
44 30
44 8
44 29
44 2
44 12
44 14
44 10
45 0
45 1
45 2
45 3
45 4
45 5
45 6
45 7
45 8
45 9
45 12
45 13
45 10
45 23
45 24
45 25
45 15
45 16
45 17
45 14
45 27
45 28
45 22
45 18
45 26
45 29
45 20
